(set-logic HORN)
(declare-fun assign_20_5_123_abs0 (Int Int Int Int Int Int Int) Bool)
(declare-fun assert_19_5_114_abs0 (Int Int Int Int Int Int Int) Bool)
(declare-fun assign_18_5_100_abs0 (Int Int Int Int Int Int Int) Bool)
(declare-fun while_17_1_126_abs0 (Int Int Int Int Int Int Int) Bool)
(declare-fun assign_16_1_82_abs0 (Int Int Int Int Int Int Int) Bool)
(declare-fun assign_13_4_73_abs0 (Int Int Int Int Int Int Int) Bool)
(declare-fun arrayassign_12_4_64_abs0 (Int Int Int Int Int Int Int) Bool)
(declare-fun while_11_1_76_abs0 (Int Int Int Int Int Int Int) Bool)
(declare-fun assign_10_1_46_abs0 (Int Int Int Int Int Int Int) Bool)
(declare-fun assign_9_1_40_abs0 (Int Int Int Int Int Int Int) Bool)
(declare-fun end_abs0 (Int Int Int Int Int Int Int) Bool)
(declare-fun start_abs0 (Int Int Int Int Int Int Int) Bool)
(assert (forall ((a (Array Int Int)) (u Int) (c Int) (tmp Int) (size Int) (i Int) (vabs_f_f Int)) (start_abs0 vabs_f_f (select a vabs_f_f) u c tmp size i)))
(assert (forall ((i Int) (size Int) (tmp Int) (c Int) (u Int) (a (Array Int Int)) (vabs_0_f_f Int)) (=> (start_abs0 vabs_0_f_f (select a vabs_0_f_f) u c tmp size i) (assign_9_1_40_abs0 vabs_0_f_f (select a vabs_0_f_f) u c tmp size i))))
(assert (forall ((rnd Int) (i Int) (size Int) (tmp Int) (c Int) (u Int) (a (Array Int Int)) (vabs_0_f_f Int)) (=> (assign_9_1_40_abs0 vabs_0_f_f (select a vabs_0_f_f) u c tmp size i) (assign_10_1_46_abs0 vabs_0_f_f (select a vabs_0_f_f) u c tmp rnd i))))
(assert (forall ((i Int) (size Int) (tmp Int) (c Int) (u Int) (a (Array Int Int)) (vabs_0_f_f Int)) (=> (assign_10_1_46_abs0 vabs_0_f_f (select a vabs_0_f_f) u c tmp size i) (while_11_1_76_abs0 vabs_0_f_f (select a vabs_0_f_f) u c tmp size 0))))
(assert (forall ((a (Array Int Int)) (u Int) (c Int) (tmp Int) (size Int) (i Int) (vabs_0_f_f Int)) (=> (and (while_11_1_76_abs0 vabs_0_f_f (select a vabs_0_f_f) u c tmp size i) (< i size)) (arrayassign_12_4_64_abs0 vabs_0_f_f (select a vabs_0_f_f) u c tmp size i))))
(assert (forall ((a (Array Int Int)) (u Int) (c Int) (tmp Int) (size Int) (i Int) (vabs_0_f_f Int)) (=> (and (while_11_1_76_abs0 vabs_0_f_f (select a vabs_0_f_f) u c tmp size i) (not (< i size))) (assign_16_1_82_abs0 vabs_0_f_f (select a vabs_0_f_f) u c tmp size i))))
(assert (forall ((i Int) (size Int) (tmp Int) (c Int) (u Int) (a (Array Int Int)) (vabs_0_f_f Int)) (=> (arrayassign_12_4_64_abs0 vabs_0_f_f (select a vabs_0_f_f) u c tmp size i) (assign_13_4_73_abs0 vabs_0_f_f (select (store a i 1) vabs_0_f_f) u c tmp size i))))
(assert (forall ((i Int) (size Int) (tmp Int) (c Int) (u Int) (a (Array Int Int)) (vabs_0_f_f Int)) (=> (assign_13_4_73_abs0 vabs_0_f_f (select a vabs_0_f_f) u c tmp size i) (while_11_1_76_abs0 vabs_0_f_f (select a vabs_0_f_f) u c tmp size (+ i 2)))))
(assert (forall ((i Int) (size Int) (tmp Int) (c Int) (u Int) (a (Array Int Int)) (vabs_0_f_f Int)) (=> (assign_16_1_82_abs0 vabs_0_f_f (select a vabs_0_f_f) u c tmp size i) (while_17_1_126_abs0 vabs_0_f_f (select a vabs_0_f_f) u c tmp size 1))))
(assert (forall ((a (Array Int Int)) (u Int) (c Int) (tmp Int) (size Int) (i Int) (vabs_0_f_f Int)) (=> (and (while_17_1_126_abs0 vabs_0_f_f (select a vabs_0_f_f) u c tmp size i) (< i size)) (assign_18_5_100_abs0 vabs_0_f_f (select a vabs_0_f_f) u c tmp size i))))
(assert (forall ((a (Array Int Int)) (u Int) (c Int) (tmp Int) (size Int) (i Int) (vabs_0_f_f Int)) (=> (and (while_17_1_126_abs0 vabs_0_f_f (select a vabs_0_f_f) u c tmp size i) (not (< i size))) (end_abs0 vabs_0_f_f (select a vabs_0_f_f) u c tmp size i))))
(assert (forall ((i Int) (size Int) (tmp Int) (c Int) (u Int) (a (Array Int Int)) (vabs_0_f_f Int)) (=> (and (assign_18_5_100_abs0 i (select a i) u c tmp size i) (assign_18_5_100_abs0 vabs_0_f_f (select a vabs_0_f_f) u c tmp size i)) (assert_19_5_114_abs0 vabs_0_f_f (select a vabs_0_f_f) (select a i) c tmp size i))))
(assert (forall ((i Int) (size Int) (tmp Int) (c Int) (u Int) (a (Array Int Int))) (=> (assert_19_5_114_abs0 i (select a i) u c tmp size i) (= (select a i) 1))))
(assert (forall ((i Int) (size Int) (tmp Int) (c Int) (u Int) (a (Array Int Int)) (vabs_0_f_f Int)) (=> (assert_19_5_114_abs0 vabs_0_f_f (select a vabs_0_f_f) u c tmp size i) (assign_20_5_123_abs0 vabs_0_f_f (select a vabs_0_f_f) u c tmp size i))))
(assert (forall ((i Int) (size Int) (tmp Int) (c Int) (u Int) (a (Array Int Int)) (vabs_0_f_f Int)) (=> (assign_20_5_123_abs0 vabs_0_f_f (select a vabs_0_f_f) u c tmp size i) (while_17_1_126_abs0 vabs_0_f_f (select a vabs_0_f_f) u c tmp size (+ i 2)))))
(check-sat)